c 3 - XORSAT
p cnf 40 160
31 32 35 0
-31 -32 35 0
-31 32 -35 0
31 -32 -35 0
-17 -22 -30 0
-17 22 30 0
17 -22 30 0
17 22 -30 0
15 16 20 0
-15 -16 20 0
-15 16 -20 0
15 -16 -20 0
2 14 25 0
-2 -14 25 0
-2 14 -25 0
2 -14 -25 0
6 22 24 0
-6 -22 24 0
-6 22 -24 0
6 -22 -24 0
1 7 14 0
-1 -7 14 0
-1 7 -14 0
1 -7 -14 0
10 33 35 0
-10 -33 35 0
-10 33 -35 0
10 -33 -35 0
-4 -12 -19 0
-4 12 19 0
4 -12 19 0
4 12 -19 0
5 11 22 0
-5 -11 22 0
-5 11 -22 0
5 -11 -22 0
37 39 30 0
-37 -39 30 0
-37 39 -30 0
37 -39 -30 0
-1 -7 -16 0
-1 7 16 0
1 -7 16 0
1 7 -16 0
-3 -5 -13 0
-3 5 13 0
3 -5 13 0
3 5 -13 0
10 11 15 0
-10 -11 15 0
-10 11 -15 0
10 -11 -15 0
3 25 31 0
-3 -25 31 0
-3 25 -31 0
3 -25 -31 0
-6 -7 -32 0
-6 7 32 0
6 -7 32 0
6 7 -32 0
-32 -34 -38 0
-32 34 38 0
32 -34 38 0
32 34 -38 0
2 27 28 0
-2 -27 28 0
-2 27 -28 0
2 -27 -28 0
4 25 21 0
-4 -25 21 0
-4 25 -21 0
4 -25 -21 0
24 26 30 0
-24 -26 30 0
-24 26 -30 0
24 -26 -30 0
3 18 26 0
-3 -18 26 0
-3 18 -26 0
3 -18 -26 0
1 4 9 0
-1 -4 9 0
-1 4 -9 0
1 -4 -9 0
16 33 36 0
-16 -33 36 0
-16 33 -36 0
16 -33 -36 0
-14 -34 -35 0
-14 34 35 0
14 -34 35 0
14 34 -35 0
-8 -23 -29 0
-8 23 29 0
8 -23 29 0
8 23 -29 0
13 27 39 0
-13 -27 39 0
-13 27 -39 0
13 -27 -39 0
29 38 40 0
-29 -38 40 0
-29 38 -40 0
29 -38 -40 0
2 21 37 0
-2 -21 37 0
-2 21 -37 0
2 -21 -37 0
17 18 28 0
-17 -18 28 0
-17 18 -28 0
17 -18 -28 0
19 39 40 0
-19 -39 40 0
-19 39 -40 0
19 -39 -40 0
8 20 28 0
-8 -20 28 0
-8 20 -28 0
8 -20 -28 0
9 12 20 0
-9 -12 20 0
-9 12 -20 0
9 -12 -20 0
-6 -8 -29 0
-6 8 29 0
6 -8 29 0
6 8 -29 0
-17 -19 -36 0
-17 19 36 0
17 -19 36 0
17 19 -36 0
9 11 24 0
-9 -11 24 0
-9 11 -24 0
9 -11 -24 0
5 15 18 0
-5 -15 18 0
-5 15 -18 0
5 -15 -18 0
13 27 33 0
-13 -27 33 0
-13 27 -33 0
13 -27 -33 0
23 36 40 0
-23 -36 40 0
-23 36 -40 0
23 -36 -40 0
-10 -23 -31 0
-10 23 31 0
10 -23 31 0
10 23 -31 0
21 26 34 0
-21 -26 34 0
-21 26 -34 0
21 -26 -34 0
12 37 38 0
-12 -37 38 0
-12 37 -38 0
12 -37 -38 0
